500
    1     4     4
    2    46    46
    3    48    48
    4    19    19
    5    54    54
    6    20    20
    7    63    63
    8   100   100
    9    28    28
   10     6     6
   11    94    94
   12    41    41
   13     1     1
   14    70    70
   15     8     8
   16    60    60
   17    69    69
   18    95    95
   19    70    70
   20    83    83
   21     8     8
   22    95    95
   23    83    83
   24    95    95
   25    96    96
   26    63    63
   27    16    16
   28    42    42
   29    61    61
   30    71    71
   31     1     1
   32    52    52
   33    81    81
   34    58    58
   35    96    96
   36    82    82
   37    97    97
   38    87    87
   39    58    58
   40     6     6
   41    37    37
   42    70    70
   43    44    44
   44    55    55
   45    56    56
   46    52    52
   47    31    31
   48    64    64
   49    65    65
   50    93    93
   51    32    32
   52    63    63
   53    70    70
   54    88    88
   55    36    36
   56    20    20
   57    10    10
   58    82    82
   59    71    71
   60    61    61
   61    98    98
   62    93    93
   63   100   100
   64    96    96
   65    40    40
   66    72    72
   67    17    17
   68    47    47
   69    44    44
   70    68    68
   71     9     9
   72    85    85
   73    48    48
   74    41    41
   75    53    53
   76    87    87
   77    60    60
   78    39    39
   79    59    59
   80     8     8
   81    51    51
   82    20    20
   83     2     2
   84    42    42
   85    30    30
   86    18    18
   87    34    34
   88    27    27
   89    31    31
   90    23    23
   91    47    47
   92    75    75
   93    58    58
   94    13    13
   95    26    26
   96     1     1
   97    59    59
   98    93    93
   99    68    68
  100    86    86
  101     7     7
  102    35    35
  103    52    52
  104    39    39
  105    89    89
  106    51    51
  107    64    64
  108    29    29
  109    81    81
  110    32    32
  111    88    88
  112    18    18
  113     9     9
  114    51    51
  115    31    31
  116    92    92
  117    72    72
  118    12    12
  119    54    54
  120    87    87
  121     9     9
  122    48    48
  123    87    87
  124    54    54
  125    80    80
  126    66    66
  127     3     3
  128    98    98
  129    80    80
  130    99    99
  131    40    40
  132    53    53
  133    65    65
  134    61    61
  135    15    15
  136    70    70
  137    20    20
  138    53    53
  139    70    70
  140    38    38
  141    22    22
  142    17    17
  143    78    78
  144    55    55
  145     6     6
  146    81    81
  147     3     3
  148    54    54
  149    92    92
  150     7     7
  151    57    57
  152    18    18
  153    15    15
  154     2     2
  155    51    51
  156    65    65
  157    37    37
  158    20    20
  159    83    83
  160    68    68
  161    66    66
  162     3     3
  163    22    22
  164    18    18
  165    99    99
  166     6     6
  167    22    22
  168    54    54
  169    26    26
  170    17    17
  171    38    38
  172    77    77
  173    84    84
  174     2     2
  175    40    40
  176    59    59
  177    30    30
  178    84    84
  179    75    75
  180    71    71
  181    97    97
  182    46    46
  183    89    89
  184     2     2
  185    77    77
  186    86    86
  187    72    72
  188    73    73
  189   100   100
  190    72    72
  191    57    57
  192    87    87
  193    17    17
  194     1     1
  195    53    53
  196     4     4
  197    64    64
  198    41    41
  199    28    28
  200    65    65
  201    21    21
  202     1     1
  203    72    72
  204    54    54
  205    98    98
  206     3     3
  207    88    88
  208    66    66
  209    41    41
  210    15    15
  211    34    34
  212    15    15
  213    15    15
  214    74    74
  215    55    55
  216     1     1
  217    35    35
  218     2     2
  219    37    37
  220    57    57
  221    95    95
  222    58    58
  223    63    63
  224    54    54
  225    69    69
  226     2     2
  227     9     9
  228    12    12
  229    77    77
  230    70    70
  231    67    67
  232    21    21
  233    43    43
  234    35    35
  235    65    65
  236    77    77
  237    61    61
  238    70    70
  239    29    29
  240    35    35
  241    64    64
  242    26    26
  243    17    17
  244     7     7
  245    32    32
  246    90    90
  247    39    39
  248    87    87
  249    53    53
  250    48    48
  251    51    51
  252    61    61
  253    24    24
  254    89    89
  255    60    60
  256    22    22
  257    91    91
  258    12    12
  259    55    55
  260    13    13
  261     6     6
  262    35    35
  263    65    65
  264    87    87
  265    47    47
  266    68    68
  267    20    20
  268    91    91
  269    93    93
  270    90    90
  271     2     2
  272     8     8
  273    49    49
  274    21    21
  275     3     3
  276    90    90
  277    66    66
  278    11    11
  279    40    40
  280    10    10
  281    83    83
  282    78    78
  283     1     1
  284    89    89
  285    11    11
  286    26    26
  287    51    51
  288    60    60
  289    53    53
  290    92    92
  291    30    30
  292    63    63
  293    70    70
  294    69    69
  295    31    31
  296    63    63
  297    45    45
  298    57    57
  299    30    30
  300    91    91
  301    93    93
  302     1     1
  303    41    41
  304     7     7
  305    62    62
  306    80    80
  307    64    64
  308    80    80
  309    10    10
  310    37    37
  311     4     4
  312    24    24
  313    90    90
  314    18    18
  315    71    71
  316    77    77
  317    38    38
  318    80    80
  319    13    13
  320    21    21
  321    65    65
  322    23    23
  323    75    75
  324    42    42
  325    30    30
  326    86    86
  327    66    66
  328    21    21
  329    85    85
  330    53    53
  331    74    74
  332    13    13
  333    75    75
  334    79    79
  335    52    52
  336    16    16
  337    54    54
  338    58    58
  339    93    93
  340    61    61
  341    35    35
  342    11    11
  343    22    22
  344    98    98
  345    97    97
  346    30    30
  347    62    62
  348    26    26
  349    71    71
  350    71    71
  351    27    27
  352    52    52
  353    66    66
  354    39    39
  355    17    17
  356     6     6
  357    66    66
  358    78    78
  359    88    88
  360    65    65
  361    87    87
  362    75    75
  363    61    61
  364    14    14
  365    44    44
  366    21    21
  367    84    84
  368    29    29
  369    65    65
  370    25    25
  371    85    85
  372    50    50
  373    74    74
  374    49    49
  375    81    81
  376    12    12
  377    72    72
  378     4     4
  379    29    29
  380    55    55
  381     2     2
  382    57    57
  383    31    31
  384    92    92
  385    96    96
  386    70    70
  387     4     4
  388    76    76
  389    17    17
  390    32    32
  391    78    78
  392    14    14
  393    24    24
  394    41    41
  395    90    90
  396    60    60
  397    63    63
  398    15    15
  399     9     9
  400   100   100
  401    35    35
  402    56    56
  403    53    53
  404    62    62
  405    55    55
  406    68    68
  407    83    83
  408    94    94
  409    31    31
  410    86    86
  411    17    17
  412    17    17
  413    36    36
  414    91    91
  415    90    90
  416    68    68
  417    71    71
  418    54    54
  419    49    49
  420    83    83
  421    20    20
  422    13    13
  423    48    48
  424     1     1
  425    31    31
  426    85    85
  427    81    81
  428     9     9
  429    90    90
  430    24    24
  431    83    83
  432    51    51
  433    16    16
  434    27    27
  435    88    88
  436    41    41
  437    73    73
  438    20    20
  439    42    42
  440    43    43
  441    10    10
  442    82    82
  443    89    89
  444    31    31
  445    61    61
  446    88    88
  447    72    72
  448    37    37
  449    28    28
  450    13    13
  451    76    76
  452    52    52
  453    15    15
  454    20    20
  455    77    77
  456    70    70
  457    43    43
  458    81    81
  459     3     3
  460    25    25
  461    77    77
  462     8     8
  463    42    42
  464    83    83
  465    49    49
  466    18    18
  467    54    54
  468     4     4
  469    13    13
  470    24    24
  471    36    36
  472    37    37
  473    21    21
  474    11    11
  475    49    49
  476    85    85
  477    93    93
  478    58    58
  479    41    41
  480    15    15
  481    73    73
  482    89    89
  483    15    15
  484    37    37
  485    97    97
  486    42    42
  487    71    71
  488    64    64
  489    98    98
  490    88    88
  491    55    55
  492    46    46
  493    38    38
  494    48    48
  495    14    14
  496    15    15
  497    12    12
  498    53    53
  499    96    96
  500    82    82
8346
